2 10
243 275 
0 31 34 42 52 5 23 2
1 41 50 80 85 59 38 2
2 91 92 68 63 72 48 1
3 81 89 40 44 60 56 1
4 15 14 69 65 56 6 1
5 2 8 49 54 91 82 2
6 89 79 10 6 21 16 1
7 42 34 80 72 36 28 1
8 80 75 36 42 48 31 2
9 21 12 64 67 30 78 2
